SDVRPTW/PR20.sol
Route #1: 15 199 191 149 92 166 114 217 237
Route #2: 284 234 2 211 260 116 105 253 213
Route #3: 236 182 202 279 235 45
Route #4: 8 271 259 263 133 123 112 219 243 108
Route #5:
Route #6: 68 185 275 246 207 150 9 204 41 174 5 121
Route #7: 18 215 117 154 32 34 280 101 7 52 222 110 268
Route #8: 178 93 180 227 96 28 48 270 196 120 201 137
Route #9: 94 74 176 11 64 269 177 72 173 190 186 228 107 223
Route #10:
Route #11: 115 50 95 181 232 231 20 240 168 193 250
Route #12: 252 118 261 14 143 247 3 88 163 278 277 145 156 155
Route #13: 27 49 25 56 141 203 258 65 146 276 42 285
Route #14: 135 104 90 86 30 157 212 126 195 162 33 169 76 36 251
Route #15:
Route #16: 140 179 99 151 283 214 158 218 103 148 29 230 26 205 142
Route #17: 78 113 282 35 287 106 172 198 184 61 70 153 132
Route #18: 127 233 170 183 159 40 242 81 102 254 266 265 98 248
Route #19:
Route #20:
Route #21: 257 60 281 80 167 165 46 136 128 221 85 216 97 161 39
Route #22: 66 89 10 125 69 131 19 225 54 164 4 24
Route #23: 256 249 139 224 73 111 239 171 192 129 13 122 208 62 1
Route #24: 17 67 241 238 37
Route #25: 130 79 138 245 84 197 38 220 226 23 274 71 63 6
Route #26: 119 152 134 47 109 51 16 58 147 286 124 288 267 77 21 188 53 83
Route #27: 175 200 12 244 194 273 187 160 82 44 189 206 100 144
Route #28: 262 210 75 209 55 87 272 59 91 31 229 57 255 43 22 264
Route #29:
Route #30:
Cost: 4948450
